(set-info :smt-lib-version 2.6)
(set-logic QF_UFLIA)
(set-info :source |
   Wisconsin Safety Analyzer (WiSA) benchmarks translated to SMT format by Hossein Sheini
  |)
(set-info :category "industrial")
(set-info :status unsat)
(declare-fun arg0 () Int)
(declare-fun arg1 () Int)
(declare-fun fmt0 () Int)
(declare-fun fmt1 () Int)
(declare-fun distance () Int)
(declare-fun fmt_length () Int)
(declare-fun adr_lo () Int)
(declare-fun adr_medlo () Int)
(declare-fun adr_medhi () Int)
(declare-fun adr_hi () Int)
(declare-fun format (Int) Int)
(declare-fun percent () Int)
(declare-fun s () Int)
(declare-fun s_count (Int) Int)
(declare-fun x () Int)
(declare-fun x_count (Int) Int)
(assert (let ((?v_1 (+ fmt0 1)) (?v_0 (- (- fmt1 2) fmt0)) (?v_4 (format 0))) (let ((?v_10 (= ?v_4 percent)) (?v_5 (format 1))) (let ((?v_14 (= ?v_5 percent)) (?v_11 (= ?v_5 s)) (?v_33 (= ?v_5 x)) (?v_6 (format 2))) (let ((?v_18 (= ?v_6 percent)) (?v_15 (= ?v_6 s)) (?v_36 (= ?v_6 x)) (?v_7 (format 3))) (let ((?v_22 (= ?v_7 percent)) (?v_19 (= ?v_7 s)) (?v_39 (= ?v_7 x)) (?v_8 (format 4))) (let ((?v_26 (= ?v_8 percent)) (?v_23 (= ?v_8 s)) (?v_42 (= ?v_8 x)) (?v_9 (format 5))) (let ((?v_30 (= ?v_9 percent)) (?v_27 (= ?v_9 s)) (?v_45 (= ?v_9 x)) (?v_12 (and ?v_10 ?v_11)) (?v_13 (s_count 0)) (?v_16 (and ?v_14 ?v_15)) (?v_17 (s_count 1)) (?v_20 (and ?v_18 ?v_19)) (?v_21 (s_count 2)) (?v_24 (and ?v_22 ?v_23)) (?v_25 (s_count 3))) (let ((?v_28 (and ?v_26 ?v_27)) (?v_29 (s_count 4)) (?v_48 (format 6))) (let ((?v_31 (and ?v_30 (= ?v_48 s))) (?v_32 (s_count 5)) (?v_34 (and ?v_10 ?v_33)) (?v_35 (x_count 0)) (?v_37 (and ?v_14 ?v_36)) (?v_38 (x_count 1)) (?v_40 (and ?v_18 ?v_39)) (?v_41 (x_count 2)) (?v_43 (and ?v_22 ?v_42)) (?v_44 (x_count 3)) (?v_46 (and ?v_26 ?v_45)) (?v_47 (x_count 4)) (?v_49 (and ?v_30 (= ?v_48 x))) (?v_50 (x_count 5)) (?v_2 (+ fmt0 0)) (?v_3 (+ fmt0 2))) (not (=> (and (and (and (and (and (and (and (and (and (and (and (= distance 16) (= fmt_length 6)) (= adr_lo 3)) (= adr_medlo 4)) (= adr_medhi 5)) (= adr_hi 6)) (and (and (= percent 37) (= s 115)) (= x 120))) (and (and (and (and (and (and (and (= fmt0 0) (= arg0 (- fmt0 distance))) (>= arg1 fmt0)) (< fmt1 (+ fmt0 (- fmt_length 1)))) (> fmt1 ?v_1)) (>= arg1 (+ arg0 distance))) (< arg1 (+ arg0 (+ distance (- fmt_length 4))))) (= arg1 (+ (+ arg0 (* 4 (s_count ?v_0))) (* 4 (x_count ?v_0)))))) (and (or (or (or (or (or (= fmt1 ?v_2) (= fmt1 ?v_1)) (= fmt1 ?v_3)) (= fmt1 (+ fmt0 3))) (= fmt1 (+ fmt0 4))) (= fmt1 (+ fmt0 5))) (or (or (= arg1 ?v_2) (= arg1 ?v_1)) (= arg1 ?v_3)))) (and (and (and (and (and (or (or (or (or (or (or (or ?v_10 (= ?v_4 s)) (= ?v_4 x)) (= ?v_4 3)) (= ?v_4 4)) (= ?v_4 5)) (= ?v_4 6)) (= ?v_4 255)) (or (or (or (or (or (or (or ?v_14 ?v_11) ?v_33) (= ?v_5 3)) (= ?v_5 4)) (= ?v_5 5)) (= ?v_5 6)) (= ?v_5 255))) (or (or (or (or (or (or (or ?v_18 ?v_15) ?v_36) (= ?v_6 3)) (= ?v_6 4)) (= ?v_6 5)) (= ?v_6 6)) (= ?v_6 255))) (or (or (or (or (or (or (or ?v_22 ?v_19) ?v_39) (= ?v_7 3)) (= ?v_7 4)) (= ?v_7 5)) (= ?v_7 6)) (= ?v_7 255))) (or (or (or (or (or (or (or ?v_26 ?v_23) ?v_42) (= ?v_8 3)) (= ?v_8 4)) (= ?v_8 5)) (= ?v_8 6)) (= ?v_8 255))) (or (or (or (or (or (or (or ?v_30 ?v_27) ?v_45) (= ?v_9 3)) (= ?v_9 4)) (= ?v_9 5)) (= ?v_9 6)) (= ?v_9 255)))) (and (and (and (and (and (and (=> ?v_12 (= ?v_13 1)) (=> (not ?v_12) (= ?v_13 0))) (and (=> ?v_16 (= ?v_17 (+ ?v_13 1))) (=> (not ?v_16) (= ?v_17 ?v_13)))) (and (=> ?v_20 (= ?v_21 (+ ?v_17 1))) (=> (not ?v_20) (= ?v_21 ?v_17)))) (and (=> ?v_24 (= ?v_25 (+ ?v_21 1))) (=> (not ?v_24) (= ?v_25 ?v_21)))) (and (=> ?v_28 (= ?v_29 (+ ?v_25 1))) (=> (not ?v_28) (= ?v_29 ?v_25)))) (and (=> ?v_31 (= ?v_32 (+ ?v_29 1))) (=> (not ?v_31) (= ?v_32 ?v_29))))) (and (and (and (and (and (and (=> ?v_34 (= ?v_35 1)) (=> (not ?v_34) (= ?v_35 0))) (and (=> ?v_37 (= ?v_38 (+ ?v_35 1))) (=> (not ?v_37) (= ?v_38 ?v_35)))) (and (=> ?v_40 (= ?v_41 (+ ?v_38 1))) (=> (not ?v_40) (= ?v_41 ?v_38)))) (and (=> ?v_43 (= ?v_44 (+ ?v_41 1))) (=> (not ?v_43) (= ?v_44 ?v_41)))) (and (=> ?v_46 (= ?v_47 (+ ?v_44 1))) (=> (not ?v_46) (= ?v_47 ?v_44)))) (and (=> ?v_49 (= ?v_50 (+ ?v_47 1))) (=> (not ?v_49) (= ?v_50 ?v_47))))) (and (and (and (and (and (not (= (format fmt1) percent)) (= (format (+ fmt1 1)) s)) (= (format arg1) adr_lo)) (= (format (+ arg1 1)) adr_medlo)) (= (format (+ arg1 2)) adr_medhi)) (= (format (+ arg1 3)) adr_hi))))))))))))))
(check-sat)
(exit)
